Automatic mesh
0             
Monkhorst-Pack
16   16   16
0.   0.   0.  
