#comment
1.00000
4.046 0 0 
0 4.046 0 
0 0 4.046 
Al 
4 
Direct
0 0 0 
0.5 0.5 0 
0.5 0 0.5 
0 0.5 0.5 
