NWRITE = 2
                 
PREC   = Accurate
ISYM   = 2       
NELM   = 240     
NELMIN = 4       
                 
NSW    = 10000   
IBRION = 2       
POTIM  = 0.5     
ISIF   = 2       
                 
ISMEAR = 1       
SIGMA  = 0.4     
                 
IALGO  = 48      
LREAL  = .FALSE. 
ENCUT  = 450.00  
ENAUG  = 600.00  
EDIFF  = 1e-7    
ISPIN  = 1       
                 
LWAVE  = .FALSE. 
LCHARG = .TRUE.  
                 
NPAR   = 8       
